p cnf 80 99
-9  7  8  0
11  -9  -10  0
-13  -11  12  0
-19  -17  -18  0
-23  -21  22  0
-27  -25  -26  0
29  -27  28  0
-31  29  30  0
-33  31  -32  0
37  35  36  0
39  -37  38  0
-59  -57  58  0
-63  61  62  0
-67  65  -66  0
-69  -67  68  0
75  -73  -74  0
-77  75  76  0
-79  77  78  0
4  1  2  0
-6  -3  4  0
-8  -5  6  0
10  -9  -8  0
10  9  7  0
-10  -7  8  0
12  11  10  0
12  -11  -9  0
12  -9  -10  0
14  13  -12  0
-14  13  -11  0
16  15  -14  0
-16  -13  14  0
18  -17  -16  0
-18  17  15  0
-20  -19  -18  0
20  19  17  0
-20  17  18  0
-22  -21  20  0
-22  -21  19  0
22  19  20  0
-24  23  -21  0
24  21  22  0
26  -25  24  0
-26  23  -24  0
-28  -27  26  0
-28  -25  26  0
-30  29  27  0
-32  31  -29  0
-32  29  30  0
-34  -33  32  0
34  33  31  0
-34  -31  -32  0
-36  -35  -33  0
-36  -33  -34  0
38  -37  -35  0
-38  35  -36  0
40  -39  -38  0
40  -39  37  0
42  41  -40  0
44  43  -42  0
44  -43  41  0
-46  -45  -44  0
-46  -45  43  0
46  -43  -44  0
-48  47  46  0
48  -47  -45  0
-50  49  48  0
-52  51  -50  0
-52  51  -49  0
-52  -49  50  0
-54  53  -51  0
-56  -55  -54  0
56  55  -53  0
56  -53  -54  0
58  57  55  0
-58  -55  -56  0
-60  57  -58  0
62  61  -60  0
62  61  59  0
62  -59  60  0
64  -63  62  0
-64  -63  -61  0
-64  -61  62  0
-66  -65  64  0
66  -65  -63  0
-68  67  -65  0
68  -65  -66  0
70  69  68  0
70  67  68  0
72  71  70  0
72  -71  69  0
-72  -69  -70  0
-74  73  -72  0
74  -71  72  0
76  -75  -73  0
76  73  -74  0
78  -77  -76  0
78  77  -75  0
-80  79  -78  0
80  77  -78  0
